%lindaworkers=48
%mem=20GB
%chk=hf51116_frag1_q2_esp.chk
# B3LYP/def2TZVP em=GD3BJ scrf=(smd,solvent=water) pop=mk iop(6/33=2,6/42=6)

esp

2 1
 C                130.18500000  137.83300000  115.47400000
 N                126.32600000  139.55700000  116.11500000
 C                129.39500000  137.34500000  116.68300000
 N                123.86400000  141.01000000  119.83200000
 C                128.25000000  138.27200000  117.02300000
 C                127.47400000  138.74200000  115.78100000
 C                128.40600000  139.48100000  114.79900000
 C                129.89100000  139.30300000  115.16000000
 C                125.83700000  139.44500000  117.49500000
 C                125.55400000  140.82300000  118.06800000
 C                124.07300000  141.00400000  118.39200000
 C                122.46100000  141.20800000  120.19200000
 H                129.93500000  137.22700000  114.60200000
 H                131.25400000  137.68700000  115.64000000
 H                126.56443876  140.51343931  115.94656365
 H                130.05100000  137.25400000  117.55100000
 H                129.02700000  136.33700000  116.48300000
 H                124.17378640  140.13636192  120.20721846
 H                128.60200000  139.11700000  117.61900000
 H                127.64200000  137.62600000  117.65600000
 H                127.09100000  137.84700000  115.28700000
 H                128.19100000  140.55000000  114.75700000
 H                128.21300000  139.11200000  113.79000000
 H                130.51300000  139.64100000  114.33000000
 H                130.16200000  139.93500000  116.00800000
 H                126.44000000  138.98800000  118.27000000
 H                124.94300000  138.81800000  117.46300000
 H                125.83600000  141.61200000  117.36900000
 H                126.18600000  141.01300000  118.93700000
 H                123.74400000  141.96800000  117.99700000
 H                123.44700000  140.25200000  117.90400000
 H                121.84500000  141.47600000  119.33000000
 H                122.40400000  142.05600000  120.87700000
 H                122.06600000  140.31200000  120.67100000
 H                125.57842710  139.30783899  115.49932674
 H                124.40798525  141.74625556  120.23450193

