%lindaworkers=48
%mem=20GB
%chk=hf51116_lig_q4_esp.chk
# B3LYP/def2TZVP em=GD3BJ scrf=(smd,solvent=water) pop=mk iop(6/33=2,6/42=6)

esp

4 1
 C                130.18500000  137.83300000  115.47400000
 N                126.32600000  139.55700000  116.11500000
 O                119.09700000  134.12800000  122.12400000
 C                129.39500000  137.34500000  116.68300000
 N                123.86400000  141.01000000  119.83200000
 C                128.25000000  138.27200000  117.02300000
 N                118.87500000  136.31600000  122.46400000
 C                127.47400000  138.74200000  115.78100000
 N                113.84500000  134.96000000  121.52100000
 C                128.40600000  139.48100000  114.79900000
 N                111.66700000  134.74500000  120.94600000
 C                129.89100000  139.30300000  115.16000000
 N                112.31600000  136.46100000  122.29700000
 C                125.83700000  139.44500000  117.49500000
 N                118.10000000  134.22600000  119.63500000
 C                125.55400000  140.82300000  118.06800000
 N                120.08700000  133.14100000  117.08000000
 C                124.07300000  141.00400000  118.39200000
 C                122.46100000  141.20800000  120.19200000
 C                121.88100000  139.99900000  120.91100000
 C                122.64900000  139.28000000  121.83100000
 C                122.11700000  138.17300000  122.48100000
 C                120.80700000  137.78300000  122.22700000
 C                120.04100000  138.52300000  121.31400000
 C                120.57300000  139.61800000  120.66200000
 C                120.20800000  136.60200000  122.96300000
 C                118.62200000  135.20200000  121.79800000
 C                117.73300000  135.30500000  120.56100000
 C                116.31700000  135.08800000  120.97600000
 C                115.47500000  134.33000000  119.93300000
 C                114.19500000  133.96000000  120.54700000
 C                112.60900000  135.35900000  121.55200000
 C                118.75700000  134.64000000  118.41700000
 C                118.85500000  133.46500000  117.47400000
 C                117.72400000  132.76800000  117.05100000
 C                117.88800000  131.69800000  116.17500000
 C                119.16800000  131.35900000  115.75000000
 C                120.24000000  132.10400000  116.22800000
 H                129.93500000  137.22700000  114.60200000
 H                131.25400000  137.68700000  115.64000000
 H                126.56443876  140.51343931  115.94656365
 H                130.05100000  137.25400000  117.55100000
 H                129.02700000  136.33700000  116.48300000
 H                124.17378640  140.13636192  120.20721846
 H                128.60200000  139.11700000  117.61900000
 H                127.64200000  137.62600000  117.65600000
 H                118.28500000  137.11800000  122.31800000
 H                127.09100000  137.84700000  115.28700000
 H                114.56600000  135.56200000  121.87900000
 H                128.19100000  140.55000000  114.75700000
 H                128.21300000  139.11200000  113.79000000
 H                110.73223998  135.09783069  120.98764386
 H                130.51300000  139.64100000  114.33000000
 H                130.16200000  139.93500000  116.00800000
 H                111.36100000  136.49200000  122.62000000
 H                112.92800000  136.59700000  123.08600000
 H                126.44000000  138.98800000  118.27000000
 H                124.94300000  138.81800000  117.46300000
 H                118.70728373  133.59471037  120.11736902
 H                125.83600000  141.61200000  117.36900000
 H                126.18600000  141.01300000  118.93700000
 H                123.74400000  141.96800000  117.99700000
 H                123.44700000  140.25200000  117.90400000
 H                121.84500000  141.47600000  119.33000000
 H                122.40400000  142.05600000  120.87700000
 H                123.66000000  139.58600000  122.06200000
 H                122.72500000  137.63100000  123.19100000
 H                119.02000000  138.28200000  121.07000000
 H                119.96600000  140.16900000  119.95800000
 H                120.89600000  135.75100000  122.89700000
 H                120.14300000  136.84800000  124.02400000
 H                117.85000000  136.29500000  120.11300000
 H                115.92500000  136.08700000  121.17700000
 H                116.26900000  134.51000000  121.90700000
 H                115.89500000  133.38500000  119.58900000
 H                115.32000000  134.95400000  119.05100000
 H                113.47600000  133.77600000  119.74800000
 H                114.30000000  133.02200000  121.09300000
 H                119.74900000  135.04600000  118.63200000
 H                118.18600000  135.42200000  117.91500000
 H                116.74500000  133.05400000  117.40100000
 H                117.03000000  131.13900000  115.83300000
 H                119.32700000  130.53500000  115.07100000
 H                121.25300000  131.87300000  115.93100000
 H                125.57842710  139.30783899  115.49932674
 H                124.40798525  141.74625556  120.23450193
 H                117.26688779  133.73163735  119.38694837
 H                111.86428963  133.91148266  120.42993251

