%lindaworkers=48
%mem=20GB
%chk=HL82624_esp.chk
# B3LYP/def2TZVP em=GD3BJ scrf=(smd,solvent=water) pop=mk iop(6/33=2,6/42=6)

esp

4 1
 C                 -9.23700000    0.42200000   -1.75400000
 C                  0.59600000   -2.63700000    1.26100000
 C                  1.81600000   -1.73500000    1.43200000
 C                  4.02700000   -1.05000000    0.71200000
 C                  5.41800000   -1.17400000    0.01300000
 C                  6.56000000   -1.19300000    1.05200000
 C                  7.73100000   -0.50500000    0.37100000
 C                  7.05000000    0.56100000   -0.48000000
 C                  5.01800000    0.28300000   -1.96000000
 C                  5.45600000    1.47800000   -2.86900000
 C                  4.76200000    2.83400000   -2.52300000
 C                 -6.93300000    0.58700000   -2.75500000
 C                  5.32500000    3.63500000   -1.32100000
 C                  4.57600000    3.40200000    0.01000000
 C                  5.10700000    4.22300000    1.21200000
 C                  0.12700000   -3.40100000    2.33500000
 C                 -1.02700000   -4.17300000    2.19300000
 C                 -1.74000000   -4.15100000    0.99400000
 C                 -4.74200000    1.32900000    1.21800000
 C                 -4.11000000    1.81000000    2.52300000
 C                 -2.30300000    2.84900000    3.57200000
 C                 -2.92500000    2.76900000    4.81900000
 C                 -6.03800000    1.54300000   -1.94200000
 C                 -4.19000000    2.18400000    4.89800000
 C                 -4.79500000    1.69900000    3.73700000
 C                 -4.55400000    1.10900000   -1.90100000
 C                 -4.22700000   -0.01800000   -0.87600000
 C                 -3.06500000   -0.93700000   -1.35900000
 C                 -2.15100000   -3.23700000   -1.33600000
 C                 -1.30600000   -3.35100000   -0.06900000
 C                 -0.12200000   -2.61700000    0.06100000
 N                 -8.83100000   -0.44800000   -0.81500000
 N                -10.52400000    0.79700000   -1.79700000
 N                 -8.36500000    0.91700000   -2.65500000
 N                 -3.22200000   -2.25600000   -1.16900000
 N                  3.15100000   -2.11000000    0.85200000
 N                  5.76600000   -0.03100000   -0.87000000
 N                  4.86400000    5.68700000    1.10100000
 N                  5.03700000    1.05300000   -4.26600000
 N                 -3.81700000    0.48600000    0.46300000
 N                 -2.87200000    2.38000000    2.43100000
 O                  4.02600000   -0.36900000   -2.29300000
 O                  3.77500000    0.08800000    1.12500000
 O                 -2.04100000   -0.44400000   -1.84000000
 C                  3.55700000   -3.41900000    0.73100000
 N                  2.50700000   -4.51600000    0.55800000
 O                  4.70200000   -3.84800000    0.75000000
 H                  1.95300000   -1.53000000    2.49700000
 H                  1.50500000   -0.77000000    1.01800000
 H                  5.48000000   -2.04800000   -0.63700000
 H                  6.81000000   -2.20300000    1.38200000
 H                  6.28100000   -0.62900000    1.94700000
 H                  8.25300000   -1.22100000   -0.27000000
 H                  8.46800000   -0.10400000    1.07100000
 H                  7.69800000    0.83100000   -1.31300000
 H                  6.86500000    1.45300000    0.11800000
 H                  6.54100000    1.58600000   -2.93500000
 H                  3.67900000    2.71300000   -2.42100000
 H                  4.87700000    3.49800000   -3.38500000
 H                 -6.69400000   -0.47300000   -2.65200000
 H                 -6.72900000    0.81500000   -3.80300000
 H                  5.27700000    4.69600000   -1.57500000
 H                  6.38900000    3.41900000   -1.19900000
 H                  4.63000000    2.34400000    0.27300000
 H                  3.50800000    3.59000000   -0.12600000
 H                  6.17300000    4.03700000    1.36200000
 H                  4.62100000    3.86600000    2.12600000
 H                  0.62400000   -3.38200000    3.29800000
 H                 -1.40100000   -4.75200000    3.03000000
 H                 -2.66200000   -4.71500000    0.91900000
 H                 -4.99600000    2.22800000    0.65300000
 H                 -5.67100000    0.79400000    1.42400000
 H                 -1.32900000    3.30600000    3.47700000
 H                 -2.44700000    3.15800000    5.70600000
 H                 -6.45800000    1.79900000   -0.97000000
 H                 -6.02000000    2.48200000   -2.50000000
 H                 -4.69800000    2.11500000    5.85000000
 H                 -5.77700000    1.25400000    3.78600000
 H                 -3.94000000    1.98100000   -1.67000000
 H                 -4.25400000    0.82500000   -2.91200000
 H                 -5.11200000   -0.64900000   -0.78300000
 H                 -2.58900000   -4.20800000   -1.58100000
 H                 -1.51200000   -2.98100000   -2.18700000
 H                  0.19400000   -1.97200000   -0.74800000
 H                 -7.86300000   -0.73400000   -0.77100000
 H                 -9.46500000   -0.84700000   -0.13500000
 H                -10.86500000    1.44300000   -2.49800000
 H                -11.21200000    0.44100000   -1.14500000
 H                 -8.68600000    1.59000000   -3.34200000
 H                 -4.04400000   -2.54800000   -0.66400000
 H                  5.20600000    6.15900000    1.93100000
 H                  5.34400000    6.08500000    0.30500000
 H                  3.87600000    5.89400000    1.02200000
 H                  5.16900000    1.78800000   -4.94800000
 H                  5.56100000    0.23800000   -4.56000000
 H                  4.05700000    0.78600000   -4.23700000
 H                 -2.97090000    1.00490000    0.34110000
 H                  2.79280000   -5.46260000    0.40870000
 H                  1.53420000   -4.28720000    0.59410000
 H                 -3.60640000   -0.30990000    1.03060000

